; benchmark generated from python API
(set-info :status unknown)
(declare-fun a3 () Real)
(declare-fun a2 () Real)
(declare-fun a1 () Real)
(assert
 (forall ((x1 Real) (x2 Real) )(let (($x72 (>= (+ (+ (* a1 (^ x1 2.0)) (* a2 (^ x2 2.0))) a3) 0.0)))
 (let (($x73 (<= x2 5.0)))
 (let (($x74 (>= x2 (- 5.0))))
 (let (($x75 (<= x1 5.0)))
 (let (($x76 (>= x1 (- 5.0))))
 (let (($x77 (and $x76 $x75 $x74 $x73)))
 (let (($x82 (and (>= (+ (- (- (^ x1 2.0)) (^ x2 2.0)) (/ 1.0 4.0)) 0.0) $x77)))
 (=> $x82 $x72)))))))))
 )
(assert
 (forall ((x1 Real) (x2 Real) )(let ((?x90 (+ x2 (* (+ x2 (- (* x2 (- 1.0 (^ x1 2.0))) x1)) (/ 1.0 100.0)))))
 (let ((?x97 (+ (* a1 (^ (+ x1 (* (/ 1.0 100.0) x2)) 2.0)) (* a2 (^ ?x90 2.0)))))
 (let (($x73 (<= x2 5.0)))
 (let (($x74 (>= x2 (- 5.0))))
 (let (($x75 (<= x1 5.0)))
 (let (($x76 (>= x1 (- 5.0))))
 (let (($x77 (and $x76 $x75 $x74 $x73)))
 (let (($x101 (>= (+ (- (- (^ x1 2.0)) (^ x2 2.0)) 1.0) 0.0)))
 (let (($x72 (>= (+ (+ (* a1 (^ x1 2.0)) (* a2 (^ x2 2.0))) a3) 0.0)))
 (=> (and $x72 $x101 $x77) (>= (+ ?x97 a3) 0.0))))))))))))
 )
(assert
 (forall ((x1 Real) (x2 Real) )(let (($x73 (<= x2 5.0)))
 (let (($x74 (>= x2 (- 5.0))))
 (let (($x75 (<= x1 5.0)))
 (let (($x76 (>= x1 (- 5.0))))
 (let (($x77 (and $x76 $x75 $x74 $x73)))
 (let (($x101 (>= (+ (- (- (^ x1 2.0)) (^ x2 2.0)) 1.0) 0.0)))
 (let (($x72 (>= (+ (+ (* a1 (^ x1 2.0)) (* a2 (^ x2 2.0))) a3) 0.0)))
 (=> (and $x72 (not $x101) $x77) (<= (- (+ (^ x1 2.0) (^ x2 2.0)) 4.0) 0.0))))))))))
 )
(assert
 (let (($x24 (>= a3 (- 1.0))))
 (let (($x23 (<= a3 1.0)))
 (let (($x22 (<= a2 1.0)))
 (let (($x21 (>= a2 (- 1.0))))
 (let (($x20 (<= a1 1.0)))
 (let (($x18 (>= a1 (- 1.0))))
 (and $x18 $x20 $x21 $x22 $x23 $x24))))))))
(check-sat)
